/* Objective function */
min: +C26 +C27 +C28 +C29 +C30;

/* Constraints */
+11 C1 +89 C2 +56 C3 +49 C4 +29 C5 -128 C26 <= 0;
+11 C6 +89 C7 +56 C8 +49 C9 +29 C10 -128 C27 <= 0;
+11 C11 +89 C12 +56 C13 +49 C14 +29 C15 -128 C28 <= 0;
+11 C16 +89 C17 +56 C18 +49 C19 +29 C20 -128 C29 <= 0;
+11 C21 +89 C22 +56 C23 +49 C24 +29 C25 -128 C30 <= 0;
+92 C1 +74 C2 +8 C3 +79 C4 +38 C5 -140 C26 <= 0;
+92 C6 +74 C7 +8 C8 +79 C9 +38 C10 -140 C27 <= 0;
+92 C11 +74 C12 +8 C13 +79 C14 +38 C15 -140 C28 <= 0;
+92 C16 +74 C17 +8 C18 +79 C19 +38 C20 -140 C29 <= 0;
+92 C21 +74 C22 +8 C23 +79 C24 +38 C25 -140 C30 <= 0;
+C1 +C6 +C11 +C16 +C21 = 1;
+C2 +C7 +C12 +C17 +C22 = 1;
+C3 +C8 +C13 +C18 +C23 = 1;
+C4 +C9 +C14 +C19 +C24 = 1;
+C5 +C10 +C15 +C20 +C25 = 1;

/* Variable bounds */
C1 <= 1;
C2 <= 1;
C3 <= 1;
C4 <= 1;
C5 <= 1;
C6 <= 1;
C7 <= 1;
C8 <= 1;
C9 <= 1;
C10 <= 1;
C11 <= 1;
C12 <= 1;
C13 <= 1;
C14 <= 1;
C15 <= 1;
C16 <= 1;
C17 <= 1;
C18 <= 1;
C19 <= 1;
C20 <= 1;
C21 <= 1;
C22 <= 1;
C23 <= 1;
C24 <= 1;
C25 <= 1;
C26 <= 1;
C27 <= 1;
C28 <= 1;
C29 <= 1;
C30 <= 1;

/* Integer definitions */
int C1,C2,C3,C4,C5,C6,C7,C8,C9,C10,C11,C12,C13,C14,C15,C16,C17,C18,C19,C20,C21,C22,C23,C24,C25,C26,C27,C28,C29,C30;
